BAYES
256
2 2 2 2 2 2 2 2 2 2 2 2 2 2 2 2 2 2 2 2 2 2 2 2 2 2 2 2 2 2 2 2 2 2 2 2 2 2 2 2 2 2 2 2 2 2 2 2 2 2 2 2 2 2 2 2 2 2 2 2 2 2 2 2 2 2 2 2 2 2 2 2 2 2 2 2 2 2 2 2 2 2 2 2 2 2 2 2 2 2 2 2 2 2 2 2 2 2 2 2 2 2 2 2 2 2 2 2 2 2 2 2 2 2 2 2 2 2 2 2 2 2 2 2 2 2 2 2 2 2 2 2 2 2 2 2 2 2 2 2 2 2 2 2 2 2 2 2 2 2 2 2 2 2 2 2 2 2 2 2 2 2 2 2 2 2 2 2 2 2 2 2 2 2 2 2 2 2 2 2 2 2 2 2 2 2 2 2 2 2 2 2 2 2 2 2 2 2 2 2 2 2 2 2 2 2 2 2 2 2 2 2 2 2 2 2 2 2 2 2 2 2 2 2 2 2 2 2 2 2 2 2 2 2 2 2 2 2 2 2 2 2 2 2 2 2 2 2 2 2 2 2 2 2 2 2
256
3 16 1 0
3 17 2 1
3 18 3 2
3 19 4 3
3 20 5 4
3 21 6 5
3 22 7 6
3 23 8 7
3 24 9 8
3 25 10 9
3 26 11 10
3 27 12 11
3 28 13 12
3 29 14 13
3 30 15 14
2 31 15
3 32 17 16
3 33 18 17
3 34 19 18
3 35 20 19
3 36 21 20
3 37 22 21
3 38 23 22
3 39 24 23
3 40 25 24
3 41 26 25
3 42 27 26
3 43 28 27
3 44 29 28
3 45 30 29
3 46 31 30
2 47 31
3 48 33 32
3 49 34 33
3 50 35 34
3 51 36 35
3 52 37 36
3 53 38 37
3 54 39 38
3 55 40 39
3 56 41 40
3 57 42 41
3 58 43 42
3 59 44 43
3 60 45 44
3 61 46 45
3 62 47 46
2 63 47
3 64 49 48
3 65 50 49
3 66 51 50
3 67 52 51
3 68 53 52
3 69 54 53
3 70 55 54
3 71 56 55
3 72 57 56
3 73 58 57
3 74 59 58
3 75 60 59
3 76 61 60
3 77 62 61
3 78 63 62
2 79 63
3 80 65 64
3 81 66 65
3 82 67 66
3 83 68 67
3 84 69 68
3 85 70 69
3 86 71 70
3 87 72 71
3 88 73 72
3 89 74 73
3 90 75 74
3 91 76 75
3 92 77 76
3 93 78 77
3 94 79 78
2 95 79
3 96 81 80
3 97 82 81
3 98 83 82
3 99 84 83
3 100 85 84
3 101 86 85
3 102 87 86
3 103 88 87
3 104 89 88
3 105 90 89
3 106 91 90
3 107 92 91
3 108 93 92
3 109 94 93
3 110 95 94
2 111 95
3 112 97 96
3 113 98 97
3 114 99 98
3 115 100 99
3 116 101 100
3 117 102 101
3 118 103 102
3 119 104 103
3 120 105 104
3 121 106 105
3 122 107 106
3 123 108 107
3 124 109 108
3 125 110 109
3 126 111 110
2 127 111
3 128 113 112
3 129 114 113
3 130 115 114
3 131 116 115
3 132 117 116
3 133 118 117
3 134 119 118
3 135 120 119
3 136 121 120
3 137 122 121
3 138 123 122
3 139 124 123
3 140 125 124
3 141 126 125
3 142 127 126
2 143 127
3 144 129 128
3 145 130 129
3 146 131 130
3 147 132 131
3 148 133 132
3 149 134 133
3 150 135 134
3 151 136 135
3 152 137 136
3 153 138 137
3 154 139 138
3 155 140 139
3 156 141 140
3 157 142 141
3 158 143 142
2 159 143
3 160 145 144
3 161 146 145
3 162 147 146
3 163 148 147
3 164 149 148
3 165 150 149
3 166 151 150
3 167 152 151
3 168 153 152
3 169 154 153
3 170 155 154
3 171 156 155
3 172 157 156
3 173 158 157
3 174 159 158
2 175 159
3 176 161 160
3 177 162 161
3 178 163 162
3 179 164 163
3 180 165 164
3 181 166 165
3 182 167 166
3 183 168 167
3 184 169 168
3 185 170 169
3 186 171 170
3 187 172 171
3 188 173 172
3 189 174 173
3 190 175 174
2 191 175
3 192 177 176
3 193 178 177
3 194 179 178
3 195 180 179
3 196 181 180
3 197 182 181
3 198 183 182
3 199 184 183
3 200 185 184
3 201 186 185
3 202 187 186
3 203 188 187
3 204 189 188
3 205 190 189
3 206 191 190
2 207 191
3 208 193 192
3 209 194 193
3 210 195 194
3 211 196 195
3 212 197 196
3 213 198 197
3 214 199 198
3 215 200 199
3 216 201 200
3 217 202 201
3 218 203 202
3 219 204 203
3 220 205 204
3 221 206 205
3 222 207 206
2 223 207
3 224 209 208
3 225 210 209
3 226 211 210
3 227 212 211
3 228 213 212
3 229 214 213
3 230 215 214
3 231 216 215
3 232 217 216
3 233 218 217
3 234 219 218
3 235 220 219
3 236 221 220
3 237 222 221
3 238 223 222
2 239 223
3 240 225 224
3 241 226 225
3 242 227 226
3 243 228 227
3 244 229 228
3 245 230 229
3 246 231 230
3 247 232 231
3 248 233 232
3 249 234 233
3 250 235 234
3 251 236 235
3 252 237 236
3 253 238 237
3 254 239 238
2 255 239
2 241 240
2 242 241
2 243 242
2 244 243
2 245 244
2 246 245
2 247 246
2 248 247
2 249 248
2 250 249
2 251 250
2 252 251
2 253 252
2 254 253
2 255 254
1  255
8
1 0 1 0 0 1 1 0
8
0 1 0 1 1 0 1 0
8
0.5067664497915814 0.4932335502084187 0.7450459073954091 0.2549540926045909 0.40212711848345817 0.5978728815165419 0.6846933321342472 0.31530666786575273
8
1 0 0 1 1 0 0 1
8
1 0 0 1 0 1 0 1
8
0 1 1 0 1 0 1 0
8
0.4589260319753523 0.5410739680246478 0.6358912465770983 0.36410875342290167 0.6514906252598501 0.3485093747401498 0.5760381018091429 0.42396189819085695
8
1 0 0 1 0 1 0 1
8
0 1 1 0 0 1 0 1
8
0 1 0 1 0 1 1 0
8
0 1 1 0 1 0 0 1
8
1 0 0 1 1 0 0 1
8
1 0 0 1 1 0 1 0
8
0 1 1 0 0 1 1 0
8
0 1 1 0 1 0 1 0
4
1 0 1 0
8
0.023081473779175698 0.9769185262208243 0.6351607768639203 0.3648392231360798 0.4982600412018242 0.5017399587981757 0.2691902167388619 0.7308097832611381
8
1 0 1 0 0 1 1 0
8
0 1 1 0 0 1 1 0
8
0 1 1 0 1 0 0 1
8
1 0 1 0 1 0 0 1
8
0 1 1 0 1 0 0 1
8
0 1 1 0 0 1 0 1
8
0 1 0 1 0 1 0 1
8
0.7564348899925741 0.24356511000742587 0.4564944185200681 0.5435055814799319 0.27294949810611235 0.7270505018938876 0.8212096220886882 0.17879037791131178
8
0 1 1 0 0 1 0 1
8
1 0 0 1 1 0 1 0
8
0 1 1 0 0 1 0 1
8
1 0 0 1 1 0 0 1
8
1 0 0 1 0 1 0 1
8
1 0 1 0 0 1 1 0
4
0.05580102088467503 0.944198979115325 0.614548766684561 0.38545123331543896
8
0 1 1 0 0 1 1 0
8
0.5270099486285574 0.4729900513714425 0.23183597754492793 0.7681640224550721 0.731472929265088 0.26852707073491194 0.37694079881362064 0.6230592011863794
8
1 0 1 0 0 1 1 0
8
0 1 1 0 1 0 0 1
8
1 0 1 0 0 1 1 0
8
1 0 0 1 1 0 1 0
8
0 1 0 1 0 1 1 0
8
1 0 0 1 0 1 0 1
8
1 0 1 0 0 1 0 1
8
1 0 1 0 0 1 0 1
8
1 0 0 1 0 1 0 1
8
0 1 1 0 0 1 1 0
8
0 1 0 1 0 1 0 1
8
0 1 0 1 0 1 1 0
8
0 1 1 0 0 1 0 1
4
1 0 1 0
8
0 1 0 1 0 1 1 0
8
0 1 1 0 1 0 1 0
8
1 0 1 0 0 1 0 1
8
0 1 0 1 0 1 1 0
8
0 1 1 0 1 0 1 0
8
1 0 1 0 1 0 1 0
8
0 1 1 0 1 0 0 1
8
1 0 0 1 0 1 0 1
8
1 0 0 1 0 1 1 0
8
0 1 1 0 0 1 0 1
8
0 1 1 0 0 1 1 0
8
1 0 1 0 0 1 1 0
8
0 1 1 0 0 1 0 1
8
1 0 0 1 0 1 0 1
8
1 0 0 1 0 1 0 1
4
1 0 1 0
8
1 0 0 1 0 1 1 0
8
0.4014089614970724 0.5985910385029276 0.797656993484766 0.20234300651523396 0.5139251761724781 0.4860748238275218 0.5537272991876285 0.4462727008123715
8
0 1 0 1 0 1 1 0
8
0 1 0 1 1 0 0 1
8
1 0 0 1 1 0 0 1
8
0 1 1 0 1 0 1 0
8
0.4698605870730739 0.530139412926926 0.08614124862764894 0.9138587513723511 0.2420441994981786 0.7579558005018214 0.6954424059282157 0.3045575940717843
8
1 0 0 1 0 1 1 0
8
0 1 1 0 1 0 0 1
8
0 1 0 1 1 0 0 1
8
1 0 0 1 0 1 0 1
8
0 1 0 1 1 0 1 0
8
0 1 0 1 0 1 1 0
8
1 0 0 1 1 0 1 0
8
1 0 1 0 0 1 1 0
4
0 1 1 0
8
1 0 1 0 0 1 1 0
8
1 0 0 1 0 1 0 1
8
0 1 0 1 1 0 1 0
8
1 0 1 0 1 0 1 0
8
0 1 0 1 1 0 1 0
8
1 0 0 1 1 0 0 1
8
1 0 0 1 1 0 1 0
8
1 0 1 0 1 0 0 1
8
1 0 1 0 1 0 1 0
8
1 0 1 0 0 1 0 1
8
0.6733447343865874 0.3266552656134126 0.6741596337520502 0.32584036624794965 0.2371895273488364 0.7628104726511636 0.4904244460193997 0.5095755539806003
8
0.4759168157918164 0.5240831842081836 0.5894395230502626 0.4105604769497374 0.3608670968080362 0.6391329031919638 0.6312926837120945 0.36870731628790565
8
0.19074962436693949 0.8092503756330605 0.1643618942225276 0.8356381057774724 0.4695672787783079 0.530432721221692 0.4379276031593045 0.5620723968406954
8
0 1 1 0 0 1 0 1
8
0 1 0 1 1 0 0 1
4
1 0 0 1
8
0.8923281298295288 0.10767187017047118 0.3973029274700028 0.6026970725299972 0.5333927433423 0.46660725665770003 0.5753740889558498 0.4246259110441502
8
0.6552576429547337 0.3447423570452663 0.9641726124177405 0.035827387582259465 0.6036517879439434 0.3963482120560566 0.2954082186045959 0.7045917813954041
8
1 0 1 0 1 0 0 1
8
0 1 1 0 0 1 1 0
8
0 1 1 0 1 0 1 0
8
1 0 0 1 1 0 1 0
8
0 1 1 0 0 1 1 0
8
0.6933031863908712 0.3066968136091288 0.6869309800705364 0.3130690199294635 0.2720681944442589 0.7279318055557411 0.11585892193455719 0.8841410780654428
8
0.08217916054926434 0.9178208394507357 0.14143111048269205 0.8585688895173079 0.7764328007955366 0.2235671992044634 0.6438799710006677 0.3561200289993323
8
1 0 1 0 0 1 0 1
8
1 0 0 1 1 0 1 0
8
1 0 0 1 1 0 1 0
8
0.3098919725385874 0.6901080274614125 0.4067878070195521 0.5932121929804479 0.6448627380653766 0.35513726193462347 0.6112641383365728 0.38873586166342716
8
0 1 0 1 1 0 1 0
8
0.729798169241214 0.270201830758786 0.6048770762158703 0.3951229237841298 0.5294548934993631 0.47054510650063686 0.6122256792841956 0.3877743207158045
4
0 1 0 1
8
0 1 1 0 1 0 1 0
8
1 0 1 0 0 1 0 1
8
0.1129176228620032 0.8870823771379968 0.6372428231748174 0.36275717682518266 0.9431966499698786 0.05680335003012141 0.5857912224511447 0.4142087775488554
8
0 1 1 0 1 0 0 1
8
0 1 1 0 0 1 1 0
8
1 0 0 1 0 1 1 0
8
1 0 0 1 0 1 0 1
8
1 0 0 1 0 1 1 0
8
0.5024848171314906 0.4975151828685093 0.5607609776795386 0.4392390223204614 0.3360416273558685 0.6639583726441314 0.8719155136292193 0.12808448637078074
8
0 1 0 1 0 1 0 1
8
0 1 0 1 0 1 0 1
8
1 0 0 1 1 0 1 0
8
0.5443016605607859 0.45569833943921406 0.6073528202764591 0.39264717972354085 0.47615459255437237 0.5238454074456276 0.7823456654825457 0.21765433451745433
8
0 1 0 1 0 1 1 0
8
0 1 0 1 0 1 1 0
4
0 1 0 1
8
1 0 1 0 0 1 0 1
8
1 0 0 1 0 1 0 1
8
0 1 1 0 1 0 0 1
8
1 0 1 0 0 1 1 0
8
1 0 1 0 1 0 0 1
8
0 1 0 1 0 1 0 1
8
1 0 0 1 1 0 0 1
8
1 0 0 1 1 0 1 0
8
0.31847945132704175 0.6815205486729583 0.10919613550016678 0.8908038644998332 0.9795765461696 0.020423453830400007 0.4716634234406675 0.5283365765593326
8
0 1 0 1 0 1 0 1
8
0 1 0 1 0 1 0 1
8
0 1 0 1 0 1 0 1
8
1 0 0 1 1 0 1 0
8
1 0 1 0 0 1 0 1
8
0 1 0 1 0 1 1 0
4
0 1 0 1
8
0 1 1 0 0 1 1 0
8
0 1 1 0 1 0 1 0
8
1 0 0 1 1 0 0 1
8
0 1 0 1 0 1 1 0
8
1 0 0 1 1 0 1 0
8
0.8219389569780089 0.17806104302199113 0.5898904462972865 0.41010955370271357 0.5666118781103491 0.433388121889651 0.2230381133511691 0.7769618866488309
8
1 0 1 0 0 1 1 0
8
1 0 1 0 1 0 1 0
8
0 1 0 1 0 1 0 1
8
1 0 0 1 0 1 1 0
8
1 0 1 0 0 1 1 0
8
0 1 0 1 0 1 1 0
8
1 0 0 1 0 1 0 1
8
1 0 0 1 0 1 1 0
8
1 0 1 0 1 0 0 1
4
1 0 1 0
8
1 0 0 1 0 1 0 1
8
0 1 0 1 0 1 0 1
8
1 0 0 1 0 1 0 1
8
1 0 1 0 1 0 1 0
8
0.6483888168822651 0.3516111831177349 0.3979402126564316 0.6020597873435685 0.8392701850149076 0.1607298149850925 0.5515503752258052 0.4484496247741947
8
0 1 0 1 0 1 1 0
8
1 0 0 1 1 0 1 0
8
1 0 1 0 1 0 1 0
8
1 0 1 0 1 0 1 0
8
0 1 0 1 0 1 1 0
8
0 1 0 1 0 1 0 1
8
1 0 0 1 1 0 1 0
8
1 0 1 0 0 1 1 0
8
1 0 0 1 1 0 1 0
8
1 0 1 0 0 1 1 0
4
1 0 1 0
8
0 1 1 0 1 0 0 1
8
0 1 1 0 0 1 0 1
8
1 0 1 0 1 0 0 1
8
1 0 1 0 0 1 1 0
8
0 1 0 1 0 1 0 1
8
1 0 1 0 0 1 1 0
8
1 0 1 0 1 0 1 0
8
0 1 0 1 0 1 1 0
8
1 0 1 0 0 1 1 0
8
1 0 1 0 0 1 1 0
8
1 0 1 0 1 0 1 0
8
1 0 0 1 0 1 0 1
8
0 1 1 0 1 0 1 0
8
0 1 1 0 0 1 0 1
8
0 1 1 0 1 0 0 1
4
0 1 0 1
8
0 1 0 1 1 0 0 1
8
0 1 0 1 1 0 0 1
8
1 0 0 1 1 0 1 0
8
1 0 0 1 1 0 0 1
8
0 1 0 1 1 0 1 0
8
0 1 0 1 0 1 1 0
8
0 1 0 1 1 0 1 0
8
1 0 1 0 0 1 1 0
8
0 1 1 0 0 1 0 1
8
0 1 1 0 1 0 0 1
8
1 0 1 0 1 0 0 1
8
0.30628137148216034 0.6937186285178397 0.8788835025093235 0.12111649749067667 0.4529648613374243 0.5470351386625757 0.5157508759413524 0.4842491240586475
8
0 1 1 0 0 1 1 0
8
0 1 0 1 0 1 1 0
8
1 0 0 1 0 1 0 1
4
0 1 1 0
8
1 0 0 1 0 1 0 1
8
1 0 0 1 1 0 1 0
8
0 1 0 1 1 0 1 0
8
1 0 0 1 1 0 0 1
8
1 0 1 0 1 0 1 0
8
1 0 1 0 1 0 1 0
8
1 0 0 1 0 1 1 0
8
0 1 0 1 0 1 0 1
8
1 0 1 0 1 0 1 0
8
1 0 1 0 0 1 0 1
8
0 1 0 1 1 0 0 1
8
0.7521745615107326 0.24782543848926744 0.2510362376439002 0.7489637623560997 0.6674667511630236 0.33253324883697644 0.29804243211059894 0.7019575678894011
8
0 1 1 0 0 1 1 0
8
0 1 1 0 1 0 1 0
8
0 1 1 0 1 0 1 0
4
1 0 1 0
8
1 0 1 0 0 1 1 0
8
1 0 0 1 0 1 0 1
8
0 1 0 1 1 0 0 1
8
0.1249268165090794 0.8750731834909206 0.6639750815357143 0.3360249184642857 0.4204020962109671 0.579597903789033 0.7509162139141531 0.24908378608584691
8
0 1 1 0 1 0 0 1
8
0 1 0 1 0 1 0 1
8
0 1 0 1 1 0 0 1
8
1 0 1 0 1 0 1 0
8
0 1 0 1 1 0 0 1
8
1 0 0 1 1 0 0 1
8
1 0 0 1 1 0 0 1
8
0 1 0 1 1 0 1 0
8
0 1 1 0 0 1 0 1
8
1 0 1 0 0 1 1 0
8
0 1 1 0 0 1 0 1
4
0 1 1 0
4
1 0 0 1
4
1 0 0 1
4
0 1 0 1
4
0 1 1 0
4
1 0 0 1
4
0 1 0 1
4
0 1 0 1
4
0 1 0 1
4
0 1 0 1
4
1 0 0 1
4
1 0 0 1
4
0 1 1 0
4
1 0 1 0
4
0 1 1 0
4
1 0 1 0
2
0 1
